
===== New CPLEX run =====
Instance: /home/yorig/tuner/mpils-tests/instances/miplib/easy/lotsize.mps
Config: /scratch/yorig/mpils-results-grid-ticks-10000/easy/16proc/seed-9/4_lotsize_seed-9_20260425_202405/expansion/config_param_CPXPARAM_Preprocessing_Reduce_2_iter_4.prm
========================

Selected objective sense:  MINIMIZE
Selected objective  name:  R1921
Selected RHS        name:  B
Selected bound      name:  BOUND
Version identifier: 22.1.2.0 | 2024-11-26 | 0edbb82fd
CPXPARAM_Preprocessing_Reduce                    2
CPXPARAM_Threads                                 8
CPXPARAM_Parallel                                1
CPXPARAM_MIP_Cuts_Cliques                        -1
CPXPARAM_Preprocessing_CoeffReduce               3
CPXPARAM_MIP_Strategy_VariableSelect             1
CPXPARAM_MIP_Cuts_FlowCovers                     1
CPXPARAM_MIP_Cuts_GUBCovers                      2
CPXPARAM_MIP_Limits_GomoryCand                   10
CPXPARAM_MIP_Cuts_MIRCut                         2
CPXPARAM_MIP_Cuts_Disjunctive                    2
CPXPARAM_MIP_Limits_AggForCut                    10
CPXPARAM_Emphasis_MIP                            4
CPXPARAM_DetTimeLimit                            10000
Tried aggregator 0 times.
Reduced MIP has 1920 rows, 2985 columns, and 6565 nonzeros.
Reduced MIP has 1195 binaries, 0 generals, 0 SOSs, and 0 indicators.
Presolve time = 0.00 sec. (0.94 ticks)
Probing time = 0.00 sec. (1.73 ticks)
Clique table members: 155.
MIP emphasis: hidden feasible solutions.
MIP search method: dynamic search.
Parallel mode: deterministic, using up to 8 threads.
Root relaxation solution time = 0.01 sec. (10.01 ticks)

        Nodes                                         Cuts/
   Node  Left     Objective  IInf  Best Integer    Best Bound    ItCnt     Gap

      0     0   348385.3466   471                 348385.3466     1479         
      0     0   564993.3596   564                   Cuts: 580     2578         
*     0+    0                       1.39652e+07   564993.3596            95.95%
*     0+    0                       1.39202e+07   564993.3596            95.94%
      0     0   729305.2879   606   1.39202e+07     Cuts: 580     3267   94.76%
      0     0   921116.1600   610   1.39202e+07     Cuts: 580     4023   93.38%
      0     0  1059963.3695   584   1.39202e+07     Cuts: 580     4683   92.39%
      0     0  1137086.1135   562   1.39202e+07     Cuts: 580     5279   91.83%
      0     0  1204208.9666   562   1.39202e+07     Cuts: 580     5894   91.35%
*     0+    0                      2887513.0000  1204208.9666            58.30%
      0     0  1230075.8482   579  2887513.0000     Cuts: 580     6423   57.40%
*     0+    0                      2159864.0000  1230075.8482            43.05%
      0     0  1256470.6755   584  2159864.0000     Cuts: 580     7028   41.83%
      0     0  1275451.4160   598  2159864.0000     Cuts: 580     7743   40.95%
      0     0  1289078.6454   582  2159864.0000     Cuts: 580     8248   40.32%
*     0+    0                      2159403.0000  1289078.6454            40.30%
      0     0  1300014.6442   574  2159403.0000     Cuts: 580     8767   39.80%
*     0+    0                      2067252.0000  1300014.6442            37.11%
      0     0  1310892.8270   571  2067252.0000     Cuts: 580     9218   36.59%
*     0+    0                      2022400.0000  1310892.8270            35.18%
      0     0  1319290.1105   585  2022400.0000     Cuts: 580     9675   34.77%
*     0+    0                      1948898.0000  1319290.1105            32.31%
      0     0  1326989.9339   585  1948898.0000     Cuts: 580    10143   31.91%
*     0+    0                      1874959.0000  1326989.9339            29.23%
      0     0  1333408.5586   567  1874959.0000     Cuts: 580    10544   28.88%
      0     0  1338331.6647   585  1874959.0000     Cuts: 580    10973   28.62%
      0     0  1342545.3724   592  1874959.0000     Cuts: 580    11338   28.40%
      0     0  1346046.5585   592  1874959.0000     Cuts: 580    11771   28.21%
      0     0  1348941.8386   604  1874959.0000     Cuts: 580    12167   28.05%
      0     0  1351721.5596   602  1874959.0000     Cuts: 580    12537   27.91%
*     0+    0                      1859706.0000  1351721.5596            27.32%
      0     0  1353174.8286   613  1859706.0000     Cuts: 446    12871   27.24%
*     0+    0                      1756211.0000  1353174.8286            22.95%
      0     0  1354712.3042   598  1756211.0000     Cuts: 417    13191   22.86%
      0     0  1355996.7906   604  1756211.0000     Cuts: 488    13570   22.79%
      0     0  1357225.3137   598  1756211.0000     Cuts: 358    13861   22.72%
      0     0  1358061.3334   597  1756211.0000     Cuts: 268    14078   22.67%
      0     0  1358934.3177   601  1756211.0000     Cuts: 274    14326   22.62%
      0     0  1359798.4069   603  1756211.0000     Cuts: 298    14552   22.57%
      0     0  1360670.9842   599  1756211.0000     Cuts: 287    14747   22.52%
      0     0  1361294.4284   611  1756211.0000     Cuts: 211    14931   22.49%
      0     0  1361788.1303   599  1756211.0000     Cuts: 262    15091   22.46%
      0     0  1362437.7213   608  1756211.0000     Cuts: 202    15287   22.42%
      0     0  1362780.5651   598  1756211.0000     Cuts: 271    15445   22.40%
      0     0  1363076.1715   589  1756211.0000     Cuts: 176    15595   22.39%
*     0+    0                      1610997.0000  1363076.1715            15.39%

GUB cover cuts applied:  0
Cover cuts applied:  5
Implied bound cuts applied:  1
Flow cuts applied:  590
Mixed integer rounding cuts applied:  784
Flow path cuts applied:  29
Multi commodity flow cuts applied:  6
Gomory fractional cuts applied:  1
Disjunctive cuts applied:  0
Cone linearizations applied:  0

Root node processing (before b&c):
  Real time             =    6.73 sec. (10004.02 ticks)
Parallel b&c, 8 threads:
  Real time             =    0.00 sec. (0.00 ticks)
  Sync time (average)   =    0.00 sec.
  Wait time (average)   =    0.00 sec.
                          ------------
Total (root+branch&cut) =    6.73 sec. (10004.02 ticks)
Gap: 15.31%
Upper bound: 1.611e+06
Lower bound: 1.36437e+06
End of CPLEX run. Time: 6.734 seconds
